15
1 0 2
2 0 4
2 1 10
3 0 6
3 1 11
3 2 1
4 0 9
4 1 6
4 2 3
4 3 6
5 0 12
5 1 10
5 2 4
5 3 5
5 4 5
6 0 8
6 1 11
6 2 10
6 3 11
6 4 11
6 5 4
7 0 10
7 1 12
7 2 6
7 3 7
7 4 1
7 5 2
7 6 11
8 0 5
8 1 9
8 2 2
8 3 3
8 4 5
8 5 1
8 6 5
8 7 3
9 0 3
9 1 12
9 2 8
9 3 4
9 4 1
9 5 3
9 6 11
9 7 3
9 8 9
10 0 4
10 1 6
10 2 10
10 3 6
10 4 8
10 5 3
10 6 5
10 7 7
10 8 9
10 9 8
11 0 12
11 1 12
11 2 10
11 3 3
11 4 5
11 5 2
11 6 10
11 7 12
11 8 1
11 9 4
11 10 7
12 0 3
12 1 10
12 2 3
12 3 4
12 4 10
12 5 1
12 6 2
12 7 6
12 8 10
12 9 2
12 10 8
12 11 5
13 0 6
13 1 1
13 2 10
13 3 7
13 4 6
13 5 7
13 6 8
13 7 9
13 8 12
13 9 10
13 10 8
13 11 4
13 12 11
14 0 10
14 1 7
14 2 1
14 3 1
14 4 6
14 5 5
14 6 10
14 7 11
14 8 10
14 9 5
14 10 10
14 11 8
14 12 10
14 13 12
